experiment/data/hgs-res/Vrp-Set-A-n61/Vrp-Set-A-n61-hgs/0.hgs1.vrp
NAME : 0
COMMENT : CVRP Instance
TYPE : CVRP
DIMENSION : 61
EDGE_WEIGHT_TYPE : EUC_2D
CAPACITY : 100
NODE_COORD_SECTION
1	61.0	37.0
2	93.0	57.0
3	15.0	67.0
4	23.0	43.0
5	53.0	5.0
6	13.0	75.0
7	29.0	73.0
8	47.0	37.0
9	23.0	71.0
10	67.0	45.0
11	21.0	49.0
12	93.0	43.0
13	67.0	13.0
14	69.0	25.0
15	53.0	35.0
16	25.0	39.0
17	85.0	69.0
18	81.0	27.0
19	77.0	79.0
20	45.0	43.0
21	31.0	75.0
22	49.0	99.0
23	63.0	9.0
24	47.0	37.0
25	33.0	47.0
26	39.0	69.0
27	49.0	3.0
28	49.0	87.0
29	87.0	39.0
30	37.0	91.0
31	19.0	33.0
32	97.0	35.0
33	31.0	5.0
34	35.0	25.0
35	79.0	61.0
36	73.0	73.0
37	35.0	95.0
38	5.0	43.0
39	19.0	45.0
40	71.0	39.0
41	35.0	63.0
42	27.0	73.0
43	31.0	21.0
44	47.0	9.0
45	87.0	45.0
46	1.0	49.0
47	1.0	77.0
48	63.0	73.0
49	79.0	71.0
50	21.0	55.0
51	65.0	23.0
52	65.0	47.0
53	97.0	23.0
54	23.0	71.0
55	5.0	81.0
56	53.0	27.0
57	57.0	85.0
58	89.0	23.0
59	51.0	65.0
60	13.0	49.0
61	91.0	41.0
DEMAND_SECTION
1	0
2	23
3	17
4	12
5	6
6	22
7	3
8	24
9	24
10	11
11	7
12	12
13	8
14	14
15	20
16	16
17	16
18	4
19	9
20	18
21	14
22	10
23	19
24	22
25	19
26	9
27	18
28	2
29	18
30	11
31	19
32	18
33	15
34	4
35	12
36	8
37	18
38	12
39	72
40	2
41	5
42	14
43	11
44	19
45	16
46	19
47	3
48	12
49	10
50	20
51	7
52	13
53	16
54	23
55	22
56	18
57	6
58	12
59	27
60	9
61	15
DEPOT_SECTION
1
-1
EOF
