experiment/data/hgs-res/Vrp-Set-A-n61/Vrp-Set-A-n61-hgs/0.hgs1.log
=========== Algorithm Parameters =================
---- nbGranular        is set to 20
---- mu                is set to 25
---- lambda            is set to 40
---- nbElite           is set to 4
---- nbClose           is set to 5
---- targetFeasible    is set to 0.2
---- seed              is set to 1234
---- nbIter            is set to 20000
---- timeLimit         is set to 0
---- useSwapStar       is set to 1
==================================================
----- READING INSTANCE: baseline_results/cvrp_hgs/Vrp-Set-A-n61/Vrp-Set-A-n61-hgs/0.hgs1.vrp
----- FLEET SIZE WAS NOT SPECIFIED: DEFAULT INITIALIZATION TO 15 VEHICLES
----- INSTANCE SUCCESSFULLY LOADED WITH 60 CLIENTS AND 15 VEHICLES
----- BUILDING INITIAL POPULATION
----- STARTING GENETIC ALGORITHM
It      0      2 | T(s) 0.07 | Feas 37 1056.72 1076.30 | Inf 55 1027.40 1036.20 | Div 0.44 0.30 | Feas 0.05 1.00 | Pen 1.84 0.85
It    500    230 | T(s) 0.28 | Feas 61 1039.08 1043.34 | Inf 53 1036.53 1037.94 | Div 0.31 0.24 | Feas 0.29 1.00 | Pen 3.24 0.38
It   1000    730 | T(s) 0.48 | Feas 42 1039.08 1043.30 | Inf 36 1036.69 1039.31 | Div 0.34 0.31 | Feas 0.29 1.00 | Pen 3.30 0.17
It   1500   1230 | T(s) 0.67 | Feas 55 1039.08 1041.77 | Inf 53 1034.94 1037.06 | Div 0.31 0.29 | Feas 0.27 1.00 | Pen 2.92 0.10
It   2000   1730 | T(s) 0.86 | Feas 32 1039.08 1042.84 | Inf 45 1035.53 1038.33 | Div 0.37 0.30 | Feas 0.29 1.00 | Pen 3.04 0.10
It   2500   2230 | T(s) 1.06 | Feas 53 1039.08 1040.98 | Inf 35 1037.37 1041.94 | Div 0.29 0.38 | Feas 0.23 1.00 | Pen 3.64 0.10
It   3000   2730 | T(s) 1.25 | Feas 28 1039.08 1044.84 | Inf 44 1035.83 1036.94 | Div 0.42 0.25 | Feas 0.27 1.00 | Pen 3.10 0.10
It   3500   3230 | T(s) 1.44 | Feas 31 1039.08 1044.92 | Inf 47 1037.67 1040.37 | Div 0.41 0.29 | Feas 0.14 1.00 | Pen 3.79 0.10
It   4000   3730 | T(s) 1.64 | Feas 41 1039.08 1042.91 | Inf 32 1036.46 1038.61 | Div 0.36 0.33 | Feas 0.16 1.00 | Pen 3.22 0.10
It   4500   4230 | T(s) 1.83 | Feas 58 1039.08 1042.55 | Inf 60 1036.66 1037.89 | Div 0.33 0.27 | Feas 0.29 1.00 | Pen 3.29 0.10
It   5000   4730 | T(s) 2.03 | Feas 33 1039.08 1042.51 | Inf 57 1036.79 1038.45 | Div 0.38 0.27 | Feas 0.23 1.00 | Pen 3.35 0.10
It   5500   5230 | T(s) 2.21 | Feas 40 1039.08 1041.92 | Inf 62 1035.17 1037.42 | Div 0.34 0.28 | Feas 0.29 1.00 | Pen 2.96 0.10
It   6000   5730 | T(s) 2.40 | Feas 25 1039.08 1053.32 | Inf 46 1035.47 1036.89 | Div 0.45 0.25 | Feas 0.18 1.00 | Pen 3.02 0.10
It   6500   6230 | T(s) 2.58 | Feas 31 1039.08 1044.29 | Inf 41 1035.77 1037.85 | Div 0.38 0.32 | Feas 0.28 1.00 | Pen 3.08 0.10
It   7000   6730 | T(s) 2.77 | Feas 40 1039.08 1045.11 | Inf 38 1036.08 1038.03 | Div 0.38 0.31 | Feas 0.17 1.00 | Pen 3.15 0.10
It   7500   7230 | T(s) 2.96 | Feas 43 1039.08 1043.08 | Inf 37 1036.63 1039.62 | Div 0.37 0.35 | Feas 0.21 1.00 | Pen 3.27 0.10
It   8000   7730 | T(s) 3.15 | Feas 43 1039.08 1042.85 | Inf 30 1037.94 1041.51 | Div 0.36 0.36 | Feas 0.13 1.00 | Pen 3.93 0.10
It   8500   8230 | T(s) 3.35 | Feas 28 1039.08 1048.59 | Inf 41 1036.90 1038.77 | Div 0.43 0.31 | Feas 0.17 1.00 | Pen 3.41 0.10
It   9000   8730 | T(s) 3.54 | Feas 36 1039.08 1043.34 | Inf 31 1035.11 1040.52 | Div 0.38 0.40 | Feas 0.27 1.00 | Pen 2.95 0.10
It   9500   9230 | T(s) 3.72 | Feas 38 1039.08 1044.00 | Inf 27 1037.31 1041.63 | Div 0.38 0.37 | Feas 0.13 1.00 | Pen 3.61 0.10
It  10000   9730 | T(s) 3.91 | Feas 55 1039.08 1041.77 | Inf 51 1037.46 1040.19 | Div 0.32 0.30 | Feas 0.24 1.00 | Pen 3.69 0.10
It  10500  10230 | T(s) 4.11 | Feas 38 1039.08 1044.77 | Inf 31 1037.61 1041.03 | Div 0.38 0.36 | Feas 0.23 1.00 | Pen 3.76 0.10
It  11000  10730 | T(s) 4.30 | Feas 59 1039.08 1041.99 | Inf 60 1037.76 1040.39 | Div 0.32 0.29 | Feas 0.20 1.00 | Pen 3.84 0.10
It  11500  11230 | T(s) 4.50 | Feas 52 1039.08 1042.62 | Inf 32 1036.87 1040.23 | Div 0.34 0.36 | Feas 0.27 1.00 | Pen 3.39 0.10
It  12000  11730 | T(s) 4.69 | Feas 25 1039.08 1046.72 | Inf 28 1037.27 1041.78 | Div 0.42 0.37 | Feas 0.09 1.00 | Pen 3.53 0.10
It  12500  12230 | T(s) 4.88 | Feas 39 1039.08 1042.47 | Inf 58 1035.64 1037.19 | Div 0.36 0.26 | Feas 0.16 1.00 | Pen 3.06 0.10
It  13000  12730 | T(s) 5.08 | Feas 42 1039.08 1043.60 | Inf 50 1037.73 1039.86 | Div 0.35 0.26 | Feas 0.13 1.00 | Pen 3.82 0.10
It  13500  13230 | T(s) 5.27 | Feas 57 1039.08 1043.39 | Inf 40 1038.03 1041.50 | Div 0.33 0.33 | Feas 0.10 1.00 | Pen 3.97 0.10
It  14000  13730 | T(s) 5.46 | Feas 53 1039.08 1042.72 | Inf 37 1036.98 1039.05 | Div 0.34 0.31 | Feas 0.27 1.00 | Pen 3.45 0.10
It  14500  14230 | T(s) 5.65 | Feas 58 1039.08 1042.31 | Inf 32 1037.26 1040.60 | Div 0.30 0.33 | Feas 0.13 1.00 | Pen 3.58 0.10
It  15000  14730 | T(s) 5.84 | Feas 59 1039.08 1042.72 | Inf 63 1035.89 1038.50 | Div 0.34 0.30 | Feas 0.26 1.00 | Pen 3.11 0.10
It  15500  15230 | T(s) 6.03 | Feas 60 1039.08 1041.93 | Inf 63 1037.69 1040.38 | Div 0.34 0.26 | Feas 0.15 1.00 | Pen 3.80 0.10
It  16000  15730 | T(s) 6.23 | Feas 45 1039.08 1042.55 | Inf 47 1036.68 1039.47 | Div 0.35 0.30 | Feas 0.20 1.00 | Pen 3.30 0.10
It  16500  16230 | T(s) 6.42 | Feas 65 1039.08 1041.26 | Inf 39 1036.81 1039.61 | Div 0.28 0.34 | Feas 0.31 1.00 | Pen 3.36 0.10
It  17000  16730 | T(s) 6.61 | Feas 49 1039.08 1041.53 | Inf 48 1036.95 1038.21 | Div 0.32 0.26 | Feas 0.25 1.00 | Pen 3.43 0.10
It  17500  17230 | T(s) 6.80 | Feas 30 1039.08 1045.38 | Inf 30 1037.23 1041.35 | Div 0.40 0.35 | Feas 0.12 1.00 | Pen 3.57 0.10
It  18000  17730 | T(s) 6.98 | Feas 56 1039.08 1041.02 | Inf 42 1036.40 1038.34 | Div 0.30 0.30 | Feas 0.32 1.00 | Pen 3.16 0.10
It  18500  18230 | T(s) 7.17 | Feas 36 1039.08 1043.67 | Inf 30 1036.65 1042.50 | Div 0.38 0.39 | Feas 0.20 1.00 | Pen 3.28 0.10
It  19000  18730 | T(s) 7.36 | Feas 33 1039.08 1045.44 | Inf 30 1036.79 1039.93 | Div 0.41 0.36 | Feas 0.17 1.00 | Pen 3.35 0.10
It  19500  19230 | T(s) 7.54 | Feas 40 1039.08 1042.21 | Inf 42 1035.16 1037.80 | Div 0.37 0.29 | Feas 0.31 1.00 | Pen 2.96 0.10
It  20000  19730 | T(s) 7.73 | Feas 27 1039.08 1047.52 | Inf 48 1037.48 1040.33 | Div 0.45 0.29 | Feas 0.08 1.00 | Pen 3.70 0.10
----- GENETIC ALGORITHM FINISHED AFTER 20272 ITERATIONS. TIME SPENT: 7.82861
----- WRITING BEST SOLUTION IN : baseline_results/cvrp_hgs/Vrp-Set-A-n61/Vrp-Set-A-n61-hgs/0.hgs1.tour
