experiment/data/hgs-res/Vrp-Set-A-n61/Vrp-Set-A-n61-hgs/0.hgs1.tour
Route #1: 14 23 7 55 50
Route #2: 33 42 32 43 26 4 22 12
Route #3: 13 17 57 52 31 60 28 39
Route #4: 44 11 1 16 48 34 9
Route #5: 25 29 36 21 27 56 47 18 35 51
Route #6: 58 20 6 41 53 19
Route #7: 10 2 46 54 5 8 40
Route #8: 30 37 45 59 49 24
Route #9: 15 38 3
Cost 1039.08
